p cnf 30 82
1 2 3 0
4 5 6 0
7 8 9 0
10 11 12 0
13 14 15 0
16 17 18 0
19 20 21 0
22 23 24 0
25 26 27 0
28 29 30 0
-1 -2 0
-1 -3 0
-2 -3 0
-4 -5 0
-4 -6 0
-5 -6 0
-7 -8 0
-7 -9 0
-8 -9 0
-10 -11 0
-10 -12 0
-11 -12 0
-13 -14 0
-13 -15 0
-14 -15 0
-16 -17 0
-16 -18 0
-17 -18 0
-19 -20 0
-19 -21 0
-20 -21 0
-22 -23 0
-22 -24 0
-23 -24 0
-25 -26 0
-25 -27 0
-26 -27 0
-28 -29 0
-28 -30 0
-29 -30 0
-1 -19 0
-4 -16 0
-4 -22 0
-7 -10 0
-7 -22 0
-10 -7 0
-10 -16 0
-13 -28 0
-16 -4 0
-16 -10 0
-19 -1 0
-22 -4 0
-22 -7 0
-28 -13 0
-2 -20 0
-5 -17 0
-5 -23 0
-8 -11 0
-8 -23 0
-11 -8 0
-11 -17 0
-14 -29 0
-17 -5 0
-17 -11 0
-20 -2 0
-23 -5 0
-23 -8 0
-29 -14 0
-3 -21 0
-6 -18 0
-6 -24 0
-9 -12 0
-9 -24 0
-12 -9 0
-12 -18 0
-15 -30 0
-18 -6 0
-18 -12 0
-21 -3 0
-24 -6 0
-24 -9 0
-30 -15 0
